Welcome to sphere packing routines, relation testing division.
Welcome to Fake anchor 1
Enter depth bound:  Enter slop:  Depth bound = 32
slop = 0.005
Starting time:  	Wed May  6 12:57:04 1998

Starting case 1:
2.509999999999999786	2.828427124746190290
2.000000000000000000	2.510000000000000230
2.000000000000000000	2.510000000000000230
cellcount    =       2481448753		maxdepth = 15
partialtries =        172057154
impossible   =                0		domaincut    =                0
acutecut     =                0		verifycount  =       2171267659
partialcount =                0		diff         =        310181094
Verification succeeded.

Done.
Ending time:    	Fri May  8 02:44:21 1998

Elapsed time: 136037 seconds
diff = 365.066		18241 cells per second


